(set-option :produce-models true)
(set-logic QF_UF)
(declare-fun p45() Bool)
(declare-fun p6() Bool)
(declare-fun p21() Bool)
(declare-fun p51() Bool)
(declare-fun p30() Bool)
(declare-fun p66() Bool)
(declare-fun p3() Bool)
(declare-fun p31() Bool)
(declare-fun p27() Bool)
(declare-fun p0() Bool)
(declare-fun p32() Bool)
(declare-fun p5() Bool)
(declare-fun p24() Bool)
(declare-fun p69() Bool)
(declare-fun p59() Bool)
(declare-fun p42() Bool)
(declare-fun p49() Bool)
(declare-fun p26() Bool)
(declare-fun p29() Bool)
(declare-fun p36() Bool)
(declare-fun p64() Bool)
(declare-fun p55() Bool)
(declare-fun p1() Bool)
(declare-fun p65() Bool)
(declare-fun p37() Bool)
(declare-fun p35() Bool)
(declare-fun p15() Bool)
(declare-fun p20() Bool)
(declare-fun p40() Bool)
(declare-fun p28() Bool)
(declare-fun p46() Bool)
(declare-fun p61() Bool)
(declare-fun p60() Bool)
(declare-fun p62() Bool)
(declare-fun p56() Bool)
(declare-fun p50() Bool)
(declare-fun p58() Bool)
(declare-fun p67() Bool)
(declare-fun p68() Bool)
(declare-fun p9() Bool)
(declare-fun p39() Bool)
(declare-fun p22() Bool)
(declare-fun p16() Bool)
(declare-fun p63() Bool)
(declare-fun p7() Bool)
(declare-fun p12() Bool)
(declare-fun p25() Bool)
(declare-fun p43() Bool)
(declare-fun p19() Bool)
(declare-fun p13() Bool)
(declare-fun p44() Bool)
(declare-fun p48() Bool)
(declare-fun p4() Bool)
(declare-fun p54() Bool)
(declare-fun p2() Bool)
(declare-fun p33() Bool)
(declare-fun p34() Bool)
(declare-fun p11() Bool)
(declare-fun p38() Bool)
(declare-fun p10() Bool)
(declare-fun p52() Bool)
(declare-fun p14() Bool)
(declare-fun p17() Bool)
(declare-fun p41() Bool)
(declare-fun p8() Bool)
(declare-fun p23() Bool)
(declare-fun p18() Bool)
(declare-fun p53() Bool)
(declare-fun p57() Bool)
(declare-fun p47() Bool)
(assert
(and (or p45 (not p6) (not p21)) (or p51 p30 p66) (or p3 (not p31) (not p27)) (or p45 p0 p32) (or (not p5) (not p24) (not p69)) (or p59 (not p42) p49) (or p26 p29 p36) (or (not p69) p64 (not p55)) (or p24 (not p1) p66) (or (not p45) p21 (not p26)) (or (not p0) p65 (not p29)) (or p37 (not p29) (not p35)) (or p3 (not p30) (not p15)) (or (not p27) p21 p69) (or p30 (not p37) (not p49)) (or (not p20) (not p30) (not p40)) (or p3 (not p42) (not p21)) (or p28 (not p46) p61) (or (not p15) (not p60) (not p62)) (or p15 (not p56) (not p50)) (or p58 (not p30) p67) (or (not p67) p35 p50) (or p68 p9 p39) (or p62 (not p21) p22) (or (not p16) p63 p7) (or p30 p28 (not p24)) (or (not p56) (not p12) p37) (or p25 p43 p40) (or (not p65) (not p1) (not p37)) (or p26 p55 p19) (or p1 (not p13) p44) (or (not p32) p61 (not p3)) (or p39 p39 p48) (or (not p12) (not p37) (not p45)) (or (not p25) p13 (not p4)) (or (not p64) p64 p54) (or (not p67) (not p2) (not p33)) (or (not p60) (not p60) p67) (or p60 p21 (not p13)) (or (not p34) p44 p49) (or p65 (not p19) p7) (or p36 (not p30) p67) (or (not p67) (not p64) (not p64)) (or (not p11) p42 p63) (or p15 p11 p12) (or p60 (not p35) (not p65)) (or (not p22) (not p32) p44) (or p66 p38 p62) (or (not p10) p52 (not p14)) (or (not p54) p67 p56) (or p1 p4 p3) (or (not p39) (not p24) (not p42)) (or (not p17) (not p59) p65) (or p15 p11 p46) (or (not p9) p63 p62) (or (not p68) p41 (not p1)) (or p30 p4 (not p15)) (or p65 p30 (not p4)) (or p66 p37 p6) (or (not p58) p69 (not p8)) (or p67 p56 (not p56)) (or p32 (not p23) (not p34)) (or (not p44) (not p60) (not p69)) (or p20 (not p36) (not p42)) (or p6 (not p43) (not p66)) (or p16 p42 (not p4)) (or (not p18) (not p56) p62) (or p20 p24 (not p37)) (or p18 p48 (not p8)) (or (not p61) (not p11) p25) (or p9 p31 p60) (or (not p32) p2 p25) (or (not p68) p69 p44) (or p67 p3 p61) (or p15 p8 (not p67)) (or p42 (not p45) (not p66)) (or (not p5) p59 (not p49)) (or p23 p13 (not p60)) (or (not p46) p1 (not p53)) (or p46 p38 p45) (or p7 (not p4) p33) (or (not p1) (not p10) (not p27)) (or (not p42) p52 p52) (or (not p24) (not p53) p10) (or p57 (not p20) (not p53)) (or p5 (not p68) p12) (or p65 (not p52) p37) (or (not p19) (not p40) (not p67)) (or (not p13) p15 p43) (or (not p69) p13 (not p16)) (or (not p59) (not p32) (not p0)) (or (not p56) (not p33) (not p21)) (or p38 p9 p57) (or (not p0) p46 (not p57)) (or (not p34) (not p26) p30) (or p54 p63 p35) (or (not p18) (not p23) p49) (or p24 (not p68) (not p5)) (or p65 (not p47) (not p13)) (or (not p36) p54 p29) (or (not p38) p20 (not p1)) (or p67 (not p9) (not p2)) (or p31 p49 p62) (or (not p67) (not p58) p55) (or p46 (not p39) (not p50)) (or p37 p42 (not p36)) (or p55 (not p2) (not p13)) (or p41 p49 p12) (or (not p66) p11 (not p27)) (or p26 p28 p18) (or p20 (not p62) (not p7)) (or p67 (not p21) p59) (or p15 p8 p36) (or (not p20) (not p69) p17) (or (not p13) (not p47) (not p27)) (or p12 (not p50) (not p25)) (or (not p31) p30 p5) (or p33 p48 (not p32)) (or p66 p17 p51) (or p57 p50 p12) (or p27 (not p66) p0) (or p52 (not p44) (not p36)) (or (not p20) (not p3) p44) (or p55 (not p51) p18) (or p63 (not p42) (not p67)) (or p10 (not p30) (not p60)) (or (not p61) (not p29) (not p39)) (or (not p58) (not p54) (not p26)) (or p24 p30 (not p34)) (or (not p5) (not p14) (not p56)) (or (not p5) p18 (not p60)) (or p6 (not p35) (not p54)) (or (not p1) p37 (not p50)) (or p65 (not p48) p17) (or p34 p25 p7) (or (not p10) p68 p54) (or (not p59) p1 p27) (or (not p28) (not p37) (not p46)) (or (not p5) p58 (not p50)) (or p8 (not p36) p8) (or p4 (not p25) (not p28)) (or (not p26) p4 p4) (or (not p6) (not p3) p55) (or p4 p61 p38) (or (not p1) p66 (not p69)) (or p7 (not p47) p36) (or (not p39) p27 (not p20)) (or p30 (not p43) (not p6)) (or (not p33) (not p41) (not p20)) (or p60 (not p37) p37) (or p20 p15 (not p39)) (or (not p56) (not p44) p18) (or (not p34) (not p6) (not p56)) (or p25 (not p58) (not p66)) (or (not p59) p23 (not p54)) (or p56 p7 (not p55)) (or (not p34) (not p51) p51) (or (not p39) p46 (not p9)) (or (not p27) p64 p57) (or (not p36) (not p38) p25) (or (not p21) (not p41) p4) (or p69 p58 (not p40)) (or p8 (not p13) p65) (or (not p3) (not p10) (not p67)) (or p66 p24 (not p3)) (or (not p37) p48 (not p40)) (or p53 p36 p46) (or (not p21) (not p33) (not p18)) (or (not p26) p4 p19) (or p31 p5 p56) (or p69 (not p27) (not p55)) (or p7 p48 p11) (or p3 p52 p45) (or p51 (not p8) p27) (or p58 (not p7) (not p35)) (or p62 (not p34) p17) (or p47 p4 p30) (or (not p64) p7 p48) (or (not p49) p3 p1) (or (not p0) (not p13) p44) (or (not p3) p38 (not p37)) (or (not p26) (not p53) p16) (or p32 (not p43) (not p50)) (or p23 (not p2) (not p1)) (or p49 p17 (not p65)) (or p45 (not p61) p15) (or p39 (not p25) (not p51)) (or p52 p35 (not p13)) (or (not p69) (not p12) p44) (or p38 (not p2) (not p18)) (or (not p25) p27 (not p39)) (or (not p3) (not p26) (not p66)) (or (not p18) (not p34) p18) (or (not p5) (not p49) (not p52)) (or (not p1) (not p25) p61) (or (not p9) p17 p20) (or p65 p23 (not p31)) (or p11 p11 p66) (or p6 (not p64) (not p52)) (or (not p66) p29 p37) (or (not p18) p50 (not p20)) (or (not p69) (not p30) (not p18)) (or p17 (not p10) (not p42)) (or (not p11) p48 (not p27)) (or (not p12) p7 (not p43)) (or (not p35) (not p4) p18) (or (not p26) p12 (not p46)) (or p21 p64 (not p7)) (or (not p64) (not p3) (not p29)) (or p24 p52 (not p32)) (or p50 (not p4) p31) (or (not p43) p43 p20) (or (not p7) (not p30) (not p51)) (or p55 p62 (not p13)) (or (not p40) (not p59) (not p20)) (or p20 (not p66) p61) (or (not p4) (not p23) (not p13)) (or p18 p4 (not p0)) (or p9 p15 p16) (or p53 (not p49) (not p49)) (or (not p38) (not p56) p68) (or p25 (not p51) p37) (or p9 p22 p40) (or p69 (not p42) (not p41)) (or p15 (not p67) p24) (or p23 (not p23) p60) (or (not p15) p5 (not p52)) (or p43 (not p49) (not p22)) (or (not p60) (not p2) p53) (or p20 (not p53) p47) (or (not p55) (not p31) (not p31)) (or (not p14) p4 p65) (or (not p14) (not p61) (not p62)) (or p30 (not p38) (not p47)) (or p6 p54 p41) (or p8 p37 (not p40)) (or (not p45) p57 p67) (or p19 p15 p56) (or p35 (not p14) (not p43)) (or (not p14) p44 (not p54)) (or (not p26) (not p39) (not p59)) (or (not p6) (not p43) p62) (or (not p10) p7 (not p48)) (or p37 (not p11) p62) (or (not p31) p10 p5) (or p42 (not p32) (not p64)) (or p0 p25 p46) (or (not p19) p65 (not p44)) (or (not p23) p8 p53) (or (not p12) p61 p51) (or p30 p12 (not p36)) (or (not p31) (not p52) p57) (or p24 (not p28) (not p7)) (or p10 (not p49) (not p46)) (or (not p51) (not p17) p15) (or p4 (not p40) p16) (or (not p15) p56 (not p54)) (or (not p16) (not p5) p20) (or p69 p40 (not p23)) (or p37 (not p59) (not p44)) (or p30 (not p21) (not p66)) (or p68 p0 (not p17)) (or (not p26) (not p5) p10) (or (not p3) p58 (not p56)) (or (not p41) p51 (not p48)) (or (not p27) (not p12) p65) (or p6 p57 p5) (or (not p21) (not p41) (not p69)) (or p6 (not p5) p35) (or (not p20) (not p5) (not p67)) (or (not p27) (not p36) (not p7)) (or p37 (not p53) p38) (or p38 p46 (not p61)) (or p52 (not p63) p6) (or p48 (not p6) (not p66)) (or (not p35) p55 p20) (or (not p54) p47 p53) (or p8 p45 p66) (or p6 (not p39) p17) (or p17 (not p16) p14) (or (not p24) p64 (not p15)) (or (not p64) (not p59) p46) (or (not p53) (not p68) (not p54)) (or p0 p65 (not p58)) (or p26 (not p59) (not p66)) (or (not p24) p35 (not p60)) (or (not p69) p59 (not p50)) (or p5 (not p27) (not p54)) (or (not p53) (not p41) p2) (or p48 (not p35) (not p29)) (or (not p10) p51 (not p19)) (or (not p40) (not p65) (not p5)) (or p47 (not p57) (not p22)) (or (not p31) (not p35) (not p54)) (or (not p3) (not p32) (not p9)) (or p11 p69 p28) (or (not p59) p27 (not p54)))
)
(check-sat)
(get-model)
